c Generated map
c Size: 13 * 13, weights in range: 1 to 10, walls: True, with ratio 0.1
c dim 2 of 4
c
p sp 169 259
c graph contains 169 nodes and 259 arcs
c
a 1 14 4
a 14 1 4
a 1 2 7
a 2 1 7
a 2 15 3
a 15 2 3
a 2 3 8
a 3 2 8
a 3 16 5
a 16 3 5
a 3 4 10
a 4 3 10
a 4 17 1
a 17 4 1
a 4 5 1
a 5 4 1
a 5 18 6
a 18 5 6
a 5 6 5
a 6 5 5
a 6 19 1
a 19 6 1
a 6 7 4
a 7 6 4
a 7 20 2
a 20 7 2
a 7 8 10
a 8 7 10
a 8 21 7
a 21 8 7
a 10 23 3
a 23 10 3
a 10 11 7
a 11 10 7
a 11 12 4
a 12 11 4
a 12 25 7
a 25 12 7
a 12 13 1
a 13 12 1
a 13 26 9
a 26 13 9
a 14 27 5
a 27 14 5
a 14 15 8
a 15 14 8
a 15 28 4
a 28 15 4
a 15 16 3
a 16 15 3
a 16 29 4
a 29 16 4
a 16 17 6
a 17 16 6
a 17 30 10
a 30 17 10
a 17 18 9
a 18 17 9
a 18 31 3
a 31 18 3
a 18 19 8
a 19 18 8
a 19 32 4
a 32 19 4
a 19 20 3
a 20 19 3
a 20 33 1
a 33 20 1
a 20 21 3
a 21 20 3
a 21 34 9
a 34 21 9
a 21 22 3
a 22 21 3
a 22 35 2
a 35 22 2
a 22 23 2
a 23 22 2
a 23 36 2
a 36 23 2
a 25 38 6
a 38 25 6
a 25 26 3
a 26 25 3
a 27 40 1
a 40 27 1
a 27 28 6
a 28 27 6
a 28 41 2
a 41 28 2
a 28 29 7
a 29 28 7
a 29 42 5
a 42 29 5
a 29 30 9
a 30 29 9
a 30 43 7
a 43 30 7
a 30 31 4
a 31 30 4
a 31 44 2
a 44 31 2
a 31 32 5
a 32 31 5
a 32 45 5
a 45 32 5
a 32 33 1
a 33 32 1
a 33 46 5
a 46 33 5
a 33 34 8
a 34 33 8
a 34 47 3
a 47 34 3
a 34 35 10
a 35 34 10
a 35 48 9
a 48 35 9
a 35 36 8
a 36 35 8
a 36 49 5
a 49 36 5
a 36 37 6
a 37 36 6
a 37 50 8
a 50 37 8
a 37 38 5
a 38 37 5
a 40 53 10
a 53 40 10
a 40 41 1
a 41 40 1
a 41 54 6
a 54 41 6
a 41 42 7
a 42 41 7
a 42 43 6
a 43 42 6
a 43 56 9
a 56 43 9
a 43 44 1
a 44 43 1
a 44 57 10
a 57 44 10
a 44 45 4
a 45 44 4
a 45 58 7
a 58 45 7
a 45 46 10
a 46 45 10
a 46 59 6
a 59 46 6
a 46 47 2
a 47 46 2
a 47 60 10
a 60 47 10
a 47 48 5
a 48 47 5
a 48 61 2
a 61 48 2
a 48 49 7
a 49 48 7
a 49 62 8
a 62 49 8
a 49 50 5
a 50 49 5
a 50 63 9
a 63 50 9
a 53 54 8
a 54 53 8
a 54 67 4
a 67 54 4
a 56 69 6
a 69 56 6
a 56 57 2
a 57 56 2
a 57 70 7
a 70 57 7
a 57 58 7
a 58 57 7
a 58 71 2
a 71 58 2
a 58 59 10
a 59 58 10
a 59 72 2
a 72 59 2
a 59 60 4
a 60 59 4
a 60 73 10
a 73 60 10
a 60 61 7
a 61 60 7
a 61 74 6
a 74 61 6
a 61 62 10
a 62 61 10
a 62 75 8
a 75 62 8
a 62 63 5
a 63 62 5
a 63 76 7
a 76 63 7
a 67 80 4
a 80 67 4
a 67 68 7
a 68 67 7
a 68 81 8
a 81 68 8
a 68 69 10
a 69 68 10
a 69 82 8
a 82 69 8
a 69 70 3
a 70 69 3
a 70 83 3
a 83 70 3
a 70 71 3
a 71 70 3
a 71 84 1
a 84 71 1
a 71 72 5
a 72 71 5
a 72 85 9
a 85 72 9
a 72 73 4
a 73 72 4
a 73 86 7
a 86 73 7
a 73 74 8
a 74 73 8
a 74 87 9
a 87 74 9
a 74 75 2
a 75 74 2
a 75 88 7
a 88 75 7
a 75 76 7
a 76 75 7
a 76 89 8
a 89 76 8
a 76 77 1
a 77 76 1
a 77 90 3
a 90 77 3
a 79 92 10
a 92 79 10
a 79 80 8
a 80 79 8
a 80 93 4
a 93 80 4
a 80 81 3
a 81 80 3
a 81 94 8
a 94 81 8
a 81 82 5
a 82 81 5
a 82 95 9
a 95 82 9
a 82 83 5
a 83 82 5
a 83 96 8
a 96 83 8
a 83 84 10
a 84 83 10
a 84 97 7
a 97 84 7
a 84 85 10
a 85 84 10
a 85 98 10
a 98 85 10
a 85 86 6
a 86 85 6
a 86 99 6
a 99 86 6
a 86 87 4
a 87 86 4
a 87 100 1
a 100 87 1
a 87 88 2
a 88 87 2
a 88 101 8
a 101 88 8
a 88 89 2
a 89 88 2
a 89 102 2
a 102 89 2
a 89 90 2
a 90 89 2
a 90 103 6
a 103 90 6
a 92 105 4
a 105 92 4
a 92 93 1
a 93 92 1
a 93 106 2
a 106 93 2
a 93 94 2
a 94 93 2
a 94 107 3
a 107 94 3
a 94 95 10
a 95 94 10
a 95 108 5
a 108 95 5
a 95 96 1
a 96 95 1
a 96 109 5
a 109 96 5
a 96 97 8
a 97 96 8
a 97 110 6
a 110 97 6
a 97 98 2
a 98 97 2
a 98 111 8
a 111 98 8
a 98 99 5
a 99 98 5
a 99 112 2
a 112 99 2
a 99 100 1
a 100 99 1
a 100 113 9
a 113 100 9
a 100 101 8
a 101 100 8
a 101 114 3
a 114 101 3
a 101 102 2
a 102 101 2
a 102 115 8
a 115 102 8
a 102 103 8
a 103 102 8
a 103 116 7
a 116 103 7
a 103 104 1
a 104 103 1
a 104 117 6
a 117 104 6
a 105 118 7
a 118 105 7
a 105 106 7
a 106 105 7
a 106 119 5
a 119 106 5
a 106 107 2
a 107 106 2
a 107 120 4
a 120 107 4
a 107 108 10
a 108 107 10
a 108 121 6
a 121 108 6
a 108 109 2
a 109 108 2
a 109 122 5
a 122 109 5
a 109 110 9
a 110 109 9
a 110 123 10
a 123 110 10
a 110 111 5
a 111 110 5
a 111 124 2
a 124 111 2
a 111 112 9
a 112 111 9
a 112 125 9
a 125 112 9
a 112 113 3
a 113 112 3
a 113 126 10
a 126 113 10
a 113 114 7
a 114 113 7
a 114 127 9
a 127 114 9
a 114 115 6
a 115 114 6
a 115 128 5
a 128 115 5
a 115 116 6
a 116 115 6
a 116 117 3
a 117 116 3
a 117 130 5
a 130 117 5
a 118 131 1
a 131 118 1
a 118 119 8
a 119 118 8
a 119 132 7
a 132 119 7
a 119 120 3
a 120 119 3
a 120 133 4
a 133 120 4
a 120 121 7
a 121 120 7
a 121 134 5
a 134 121 5
a 121 122 9
a 122 121 9
a 122 123 7
a 123 122 7
a 123 136 3
a 136 123 3
a 123 124 8
a 124 123 8
a 124 137 5
a 137 124 5
a 124 125 5
a 125 124 5
a 125 138 7
a 138 125 7
a 125 126 3
a 126 125 3
a 126 127 7
a 127 126 7
a 127 128 8
a 128 127 8
a 128 141 1
a 141 128 1
a 131 144 9
a 144 131 9
a 131 132 9
a 132 131 9
a 132 145 9
a 145 132 9
a 132 133 7
a 133 132 7
a 133 146 1
a 146 133 1
a 133 134 9
a 134 133 9
a 134 147 9
a 147 134 9
a 136 149 4
a 149 136 4
a 136 137 7
a 137 136 7
a 137 150 8
a 150 137 8
a 137 138 4
a 138 137 4
a 138 151 1
a 151 138 1
a 141 154 3
a 154 141 3
a 141 142 10
a 142 141 10
a 142 155 3
a 155 142 3
a 144 157 8
a 157 144 8
a 144 145 4
a 145 144 4
a 145 158 9
a 158 145 9
a 145 146 1
a 146 145 1
a 146 159 6
a 159 146 6
a 146 147 1
a 147 146 1
a 147 160 1
a 160 147 1
a 147 148 5
a 148 147 5
a 148 161 10
a 161 148 10
a 148 149 10
a 149 148 10
a 149 150 7
a 150 149 7
a 150 163 6
a 163 150 6
a 150 151 2
a 151 150 2
a 151 164 8
a 164 151 8
a 151 152 7
a 152 151 7
a 152 165 5
a 165 152 5
a 152 153 6
a 153 152 6
a 153 166 9
a 166 153 9
a 153 154 3
a 154 153 3
a 154 167 7
a 167 154 7
a 154 155 9
a 155 154 9
a 155 168 3
a 168 155 3
a 157 158 6
a 158 157 6
a 158 159 7
a 159 158 7
a 159 160 5
a 160 159 5
a 160 161 2
a 161 160 2
a 163 164 1
a 164 163 1
a 164 165 9
a 165 164 9
a 165 166 9
a 166 165 9
a 166 167 6
a 167 166 6
a 167 168 6
a 168 167 6
a 168 169 2
a 169 168 2
